
<<< setup


<<< generate

CPXPARAM_TimeLimit                               9999
Tried aggregator 1 time.
MIP Presolve eliminated 19 rows and 19 columns.
Reduced MIP has 441 rows, 781 columns, and 2304 nonzeros.
Reduced MIP has 400 binaries, 381 generals, 0 SOSs, and 0 indicators.
Presolve time = 0,00 sec. (1,39 ticks)
Probing fixed 19 vars, tightened 0 bounds.
Probing time = 0,01 sec. (3,10 ticks)
Cover probing fixed 0 vars, tightened 361 bounds.
Tried aggregator 1 time.
MIP Presolve eliminated 21 rows and 39 columns.
MIP Presolve modified 362 coefficients.
Reduced MIP has 420 rows, 742 columns, and 2206 nonzeros.
Reduced MIP has 381 binaries, 361 generals, 0 SOSs, and 0 indicators.
Presolve time = 0,00 sec. (2,40 ticks)
Probing time = 0,01 sec. (2,68 ticks)
Clique table members: 40.
MIP emphasis: balance optimality and feasibility.
MIP search method: dynamic search.
Parallel mode: deterministic, using up to 4 threads.
Root relaxation solution time = 0,00 sec. (5,37 ticks)

        Nodes                                         Cuts/
   Node  Left     Objective  IInf  Best Integer    Best Bound    ItCnt     Gap

*     0+    0                           72,3936        0,0000           100,00%
      0     0       42,0646    52       72,3936       42,0646      320   41,89%
      0     0       43,4250    69       72,3936      Cuts: 45      433   40,02%
      0     0       43,7731    75       72,3936      Cuts: 33      545   39,53%
*     0+    0                           46,8527       43,7731             6,57%
      0     0       44,1260    96       46,8527      Cuts: 32      593    5,42%
*     0+    0                           46,0199       44,3122             3,71%

Repeating presolve.
Tried aggregator 2 times.
MIP Presolve eliminated 199 rows and 407 columns.
Aggregator did 30 substitutions.
Reduced MIP has 191 rows, 305 columns, and 1112 nonzeros.
Reduced MIP has 143 binaries, 162 generals, 0 SOSs, and 0 indicators.
Presolve time = 0,00 sec. (1,22 ticks)
Probing time = 0,00 sec. (0,46 ticks)
Tried aggregator 1 time.
Reduced MIP has 191 rows, 305 columns, and 1112 nonzeros.
Reduced MIP has 143 binaries, 162 generals, 0 SOSs, and 0 indicators.
Presolve time = 0,00 sec. (0,72 ticks)
Represolve time = 0,01 sec. (4,45 ticks)
Probing time = 0,00 sec. (0,46 ticks)
Clique table members: 28.
MIP emphasis: balance optimality and feasibility.
MIP search method: dynamic search.
Parallel mode: deterministic, using up to 4 threads.
Root relaxation solution time = 0,00 sec. (4,70 ticks)

        Nodes                                         Cuts/
   Node  Left     Objective  IInf  Best Integer    Best Bound    ItCnt     Gap

*     0+    0                           46,0199       44,3122             3,71%
      0     0       44,1260    88       46,0199       44,3122      934    3,71%
      0     0       44,4765    69       46,0199      Cuts: 28      976    3,35%
      0     0       44,7676    71       46,0199      Cuts: 42     1024    2,72%
      0     0       44,7833    84       46,0199      Cuts: 22     1048    2,69%
      0     0       44,8002    83       46,0199      Cuts: 15     1069    2,65%
      0     0       44,8013    83       46,0199      Cuts: 10     1084    2,65%
      0     0       44,9400    64       46,0199      Cuts: 17     1118    2,35%
*     0+    0                           45,2626       44,9400             0,71%

Cover cuts applied:  6
Implied bound cuts applied:  10
Flow cuts applied:  10
Mixed integer rounding cuts applied:  4
Zero-half cuts applied:  4
Lift and project cuts applied:  2
Gomory fractional cuts applied:  1

Root node processing (before b&c):
  Real time             =    0,41 sec. (233,87 ticks)
Parallel b&c, 4 threads:
  Real time             =    0,00 sec. (0,00 ticks)
  Sync time (average)   =    0,00 sec.
  Wait time (average)   =    0,00 sec.
                          ------------
Total (root+branch&cut) =    0,41 sec. (233,87 ticks)

<<< solve


OBJECTIVE: 45.26257
12/18/2018 23:39:06 203
solving time ~= 414.850830078
Done
 [[0 0 8 0 0 0 0 0 0 0 0 0 0 0 0 0 0 0 0 0]
         [0 0 0 6 0 0 0 0 0 0 0 0 0 0 0 0 0 0 0 0]
         [0 7 0 0 0 0 0 0 0 0 0 0 0 0 0 0 0 0 0 0]
         [0 0 0 0 0 0 5 0 0 0 0 0 0 0 0 0 0 0 0 0]
         [0 0 0 0 0 0 0 0 3 0 0 0 0 0 0 0 0 0 0 0]
         [9 0 0 0 0 0 0 0 0 0 0 0 0 0 0 0 0 0 0 0]
         [0 0 0 0 4 0 0 0 0 0 0 0 0 0 0 0 0 0 0 0]
         [0 0 0 0 0 0 0 0 0 0 18 0 0 0 0 0 0 0 0 0]
         [0 0 0 0 0 0 0 0 0 0 0 0 2 0 0 0 0 0 0 0]
         [0 0 0 0 0 0 0 19 0 0 0 0 0 0 0 0 0 0 0 0]
         [0 0 0 0 0 0 0 0 0 0 0 0 0 0 0 0 0 0 0 17]
         [0 0 0 0 0 10 0 0 0 0 0 0 0 0 0 0 0 0 0 0]
         [0 0 0 0 0 0 0 0 0 0 0 0 0 0 1 0 0 0 0 0]
         [0 0 0 0 0 0 0 0 0 0 0 11 0 0 0 0 0 0 0 0]
         [0 0 0 0 0 0 0 0 0 20 0 0 0 0 0 0 0 0 0 0]
         [0 0 0 0 0 0 0 0 0 0 0 0 0 12 0 0 0 0 0 0]
         [0 0 0 0 0 0 0 0 0 0 0 0 0 0 0 0 0 14 0 0]
         [0 0 0 0 0 0 0 0 0 0 0 0 0 0 0 13 0 0 0 0]
         [0 0 0 0 0 0 0 0 0 0 0 0 0 0 0 0 15 0 0 0]
         [0 0 0 0 0 0 0 0 0 0 0 0 0 0 0 0 0 0 16 0]]

<<< post process


<<< done

